i10

VEHICLE
NUMBER     CAPACITY
  9         100

CUSTOMER
CUST NO.  XCOORD.   YCOORD.    DEMAND   READY TIME  DUE DATE   SERVICE   TIME
 
    0       3          7          0           0         100          0   
    1       4          5         13           6         10          0   
    2       0          8         14           7         10          0   
    3       7          5          1           1          7          0   
    4       7          7         15           5          6          0   
    5       0          7         11           2          3          0   
    6       3          3          5           4         10          0   
    7       7          8          6           9         10          0   
    8       4          8          7           5         10          0   
    9       1          3          5           8         10          0   
